set N :=  1 2 3 4 5 6 7 8 9 10 11 12 13 14 15 ;

set M :=  1 2 3 4 5 6 7 8 9 10 ;

set T :=  1 2 3 4 5 6 7 8 9 10 11 12 13 14 15 16 17 18 19 20 21 22 23 24 ;

param arrival := 
    1 9
    2 9
    3 9
    4 5
    5 11
    6 7
    7 7
    8 6
    9 4
    10 11
    11 7
    12 5
    13 10
    14 10
    15 8
 ;

param depart := 
    1 22
    2 20
    3 19
    4 20
    5 21
    6 19
    7 21
    8 20
    9 21
    10 20
    11 19
    12 16
    13 20
    14 17
    15 18
 ;

param demand := 
    1 17
    2 54
    3 8
    4 16
    5 23
    6 15
    7 12
    8 16
    9 16
    10 7
    11 40
    12 16
    13 20
    14 21
    15 9
 ;

param installed_chargers := 
 1 4
 2 4
 3 4
 4 4
 5 4
 6 8
 7 8
 8 8
 9 19
 10 19
 ;

param installed_cost := 
 1 1000
 2 1000
 3 1000
 4 1000
 5 1000
 6 1500
 7 1500
 8 1500
 9 2200
 10 2200
 ;

param POWER := 
    1 1 4
    2 1 4
    3 1 4
    4 1 4
    5 1 4
    6 1 4
    7 1 4
    8 1 4
    9 1 4
    10 1 4
    11 1 4
    12 1 4
    13 1 4
    14 1 4
    15 1 4
    1 2 4
    2 2 4
    3 2 4
    4 2 4
    5 2 4
    6 2 4
    7 2 4
    8 2 4
    9 2 4
    10 2 4
    11 2 4
    12 2 4
    13 2 4
    14 2 4
    15 2 4
    1 3 4
    2 3 4
    3 3 4
    4 3 4
    5 3 4
    6 3 4
    7 3 4
    8 3 4
    9 3 4
    10 3 4
    11 3 4
    12 3 4
    13 3 4
    14 3 4
    15 3 4
    1 4 4
    2 4 4
    3 4 4
    4 4 4
    5 4 4
    6 4 4
    7 4 4
    8 4 4
    9 4 4
    10 4 4
    11 4 4
    12 4 4
    13 4 4
    14 4 4
    15 4 4
    1 5 4
    2 5 4
    3 5 4
    4 5 4
    5 5 4
    6 5 4
    7 5 4
    8 5 4
    9 5 4
    10 5 4
    11 5 4
    12 5 4
    13 5 4
    14 5 4
    15 5 4
    1 6 8
    2 6 8
    3 6 8
    4 6 8
    5 6 8
    6 6 8
    7 6 8
    8 6 8
    9 6 8
    10 6 8
    11 6 8
    12 6 8
    13 6 8
    14 6 8
    15 6 8
    1 7 8
    2 7 8
    3 7 8
    4 7 8
    5 7 8
    6 7 8
    7 7 8
    8 7 8
    9 7 8
    10 7 8
    11 7 8
    12 7 8
    13 7 8
    14 7 8
    15 7 8
    1 8 8
    2 8 8
    3 8 8
    4 8 8
    5 8 8
    6 8 8
    7 8 8
    8 8 8
    9 8 8
    10 8 8
    11 8 8
    12 8 8
    13 8 8
    14 8 8
    15 8 8
    1 9 19
    2 9 19
    3 9 8
    4 9 8
    5 9 19
    6 9 19
    7 9 19
    8 9 8
    9 9 8
    10 9 19
    11 9 19
    12 9 8
    13 9 19
    14 9 19
    15 9 19
    1 10 19
    2 10 19
    3 10 8
    4 10 8
    5 10 19
    6 10 19
    7 10 19
    8 10 8
    9 10 8
    10 10 19
    11 10 19
    12 10 8
    13 10 19
    14 10 19
    15 10 19
 ;

